(declare-fun Constructed_Argument_t () String)
(declare-fun CreateAsClass () Bool)
(declare-fun Constructed_Argument_elements_routes_0_t () String)
(declare-fun Constructed_Argument_elements_routes_0 () String)
(declare-fun Constructed_Argument_elements_mode_1_t () String)
(declare-fun Constructed_Argument_elements_mode_1 () Real)
(assert (= Constructed_Argument_t "object"))
(assert (not CreateAsClass))
(assert (= Constructed_Argument_elements_routes_0_t "string"))
(assert (= Constructed_Argument_elements_routes_0 ""))
(assert (= Constructed_Argument_elements_mode_1_t "number"))
(assert (not (= Constructed_Argument_elements_mode_1 0.0)))
(check-sat)
